
(set-option :produce-models true)
(set-option :inline-size-limit 10000)

(declare-const var0 String)

(push 1)
(assert (str.in.re var0 (re.* (re.range "\x01" "\xff"))))
(assert (str.in.re var0 (re.++ re.begin-anchor (re.++ (re.opt ((_ re.capture 1) (re.union (re.++ (str.to.re "+") (re.++ (str.to.re "2") (str.to.re "7"))) (re.++ (str.to.re "2") (str.to.re "7"))))) (re.++ (re.opt ((_ re.capture 2) (str.to.re "("))) (re.++ (re.opt (str.to.re "0")) (re.++ ((_ re.capture 3) (re.union (re.++ (str.to.re "7") (re.range "1" "9")) (re.++ (str.to.re "8") (re.range "2" "4")))) (re.++ (re.opt ((_ re.capture 4) (str.to.re ")"))) (re.++ (re.opt ((_ re.capture 5) (re.union (re.union (re.union (str.to.re " ") (str.to.re "-")) (str.to.re ".")) (str.to.re "_")))) (re.++ ((_ re.capture 6) ((_ re.loop 0 3) (re.range "0" "9"))) (re.++ (re.opt ((_ re.capture 7) (re.union (re.union (re.union (str.to.re " ") (str.to.re "-")) (str.to.re ".")) (str.to.re "_")))) (re.++ ((_ re.capture 8) ((_ re.loop 0 4) (re.range "0" "9"))) re.all))))))))))))	; match!==null
(assert (not (str.in.re ((_ str.extract 1) var0 (re.++ re.begin-anchor (re.++ (re.opt ((_ re.capture 1) (re.union (re.++ (str.to.re "+") (re.++ (str.to.re "2") (str.to.re "7"))) (re.++ (str.to.re "2") (str.to.re "7"))))) (re.++ (re.opt ((_ re.capture 2) (str.to.re "("))) (re.++ (re.opt (str.to.re "0")) (re.++ ((_ re.capture 3) (re.union (re.++ (str.to.re "7") (re.range "1" "9")) (re.++ (str.to.re "8") (re.range "2" "4")))) (re.++ (re.opt ((_ re.capture 4) (str.to.re ")"))) (re.++ (re.opt ((_ re.capture 5) (re.union (re.union (re.union (str.to.re " ") (str.to.re "-")) (str.to.re ".")) (str.to.re "_")))) (re.++ ((_ re.capture 6) ((_ re.loop 0 3) (re.range "0" "9"))) (re.++ (re.opt ((_ re.capture 7) (re.union (re.union (re.union (str.to.re " ") (str.to.re "-")) (str.to.re ".")) (str.to.re "_")))) (re.++ ((_ re.capture 8) ((_ re.loop 0 4) (re.range "0" "9"))) re.all))))))))))) (str.to.re "\x00"))))
;match[1]!==null
(assert (str.in.re ((_ str.extract 1) var0 (re.++ re.begin-anchor (re.++ (re.opt ((_ re.capture 1) (re.union (re.++ (str.to.re "+") (re.++ (str.to.re "2") (str.to.re "7"))) (re.++ (str.to.re "2") (str.to.re "7"))))) (re.++ (re.opt ((_ re.capture 2) (str.to.re "("))) (re.++ (re.opt (str.to.re "0")) (re.++ ((_ re.capture 3) (re.union (re.++ (str.to.re "7") (re.range "1" "9")) (re.++ (str.to.re "8") (re.range "2" "4")))) (re.++ (re.opt ((_ re.capture 4) (str.to.re ")"))) (re.++ (re.opt ((_ re.capture 5) (re.union (re.union (re.union (str.to.re " ") (str.to.re "-")) (str.to.re ".")) (str.to.re "_")))) (re.++ ((_ re.capture 6) ((_ re.loop 0 3) (re.range "0" "9"))) (re.++ (re.opt ((_ re.capture 7) (re.union (re.union (re.union (str.to.re " ") (str.to.re "-")) (str.to.re ".")) (str.to.re "_")))) (re.++ ((_ re.capture 8) ((_ re.loop 0 4) (re.range "0" "9"))) re.all))))))))))) (re.++ re.all(re.+ (re.range "a" "z")) re.all) ))
;/[a-z]+/.test(match[1]) == true
(check-sat)
(get-model)
(pop 1)
(push 1)
(assert (str.in.re var0 (re.* (re.range "\x01" "\xff"))))
(assert (str.in.re var0 (re.++ re.begin-anchor (re.++ (re.opt ((_ re.capture 1) (re.union (re.++ (str.to.re "+") (re.++ (str.to.re "2") (str.to.re "7"))) (re.++ (str.to.re "2") (str.to.re "7"))))) (re.++ (re.opt ((_ re.capture 2) (str.to.re "("))) (re.++ (re.opt (str.to.re "0")) (re.++ ((_ re.capture 3) (re.union (re.++ (str.to.re "7") (re.range "1" "9")) (re.++ (str.to.re "8") (re.range "2" "4")))) (re.++ (re.opt ((_ re.capture 4) (str.to.re ")"))) (re.++ (re.opt ((_ re.capture 5) (re.union (re.union (re.union (str.to.re " ") (str.to.re "-")) (str.to.re ".")) (str.to.re "_")))) (re.++ ((_ re.capture 6) ((_ re.loop 0 3) (re.range "0" "9"))) (re.++ (re.opt ((_ re.capture 7) (re.union (re.union (re.union (str.to.re " ") (str.to.re "-")) (str.to.re ".")) (str.to.re "_")))) (re.++ ((_ re.capture 8) ((_ re.loop 0 4) (re.range "0" "9"))) re.all))))))))))))	; match!==null
(assert (not (str.in.re ((_ str.extract 1) var0 (re.++ re.begin-anchor (re.++ (re.opt ((_ re.capture 1) (re.union (re.++ (str.to.re "+") (re.++ (str.to.re "2") (str.to.re "7"))) (re.++ (str.to.re "2") (str.to.re "7"))))) (re.++ (re.opt ((_ re.capture 2) (str.to.re "("))) (re.++ (re.opt (str.to.re "0")) (re.++ ((_ re.capture 3) (re.union (re.++ (str.to.re "7") (re.range "1" "9")) (re.++ (str.to.re "8") (re.range "2" "4")))) (re.++ (re.opt ((_ re.capture 4) (str.to.re ")"))) (re.++ (re.opt ((_ re.capture 5) (re.union (re.union (re.union (str.to.re " ") (str.to.re "-")) (str.to.re ".")) (str.to.re "_")))) (re.++ ((_ re.capture 6) ((_ re.loop 0 3) (re.range "0" "9"))) (re.++ (re.opt ((_ re.capture 7) (re.union (re.union (re.union (str.to.re " ") (str.to.re "-")) (str.to.re ".")) (str.to.re "_")))) (re.++ ((_ re.capture 8) ((_ re.loop 0 4) (re.range "0" "9"))) re.all))))))))))) (str.to.re "\x00"))))	
;match[1]!==null
(assert (not (str.in.re ((_ str.extract 1) var0 (re.++ re.begin-anchor (re.++ (re.opt ((_ re.capture 1) (re.union (re.++ (str.to.re "+") (re.++ (str.to.re "2") (str.to.re "7"))) (re.++ (str.to.re "2") (str.to.re "7"))))) (re.++ (re.opt ((_ re.capture 2) (str.to.re "("))) (re.++ (re.opt (str.to.re "0")) (re.++ ((_ re.capture 3) (re.union (re.++ (str.to.re "7") (re.range "1" "9")) (re.++ (str.to.re "8") (re.range "2" "4")))) (re.++ (re.opt ((_ re.capture 4) (str.to.re ")"))) (re.++ (re.opt ((_ re.capture 5) (re.union (re.union (re.union (str.to.re " ") (str.to.re "-")) (str.to.re ".")) (str.to.re "_")))) (re.++ ((_ re.capture 6) ((_ re.loop 0 3) (re.range "0" "9"))) (re.++ (re.opt ((_ re.capture 7) (re.union (re.union (re.union (str.to.re " ") (str.to.re "-")) (str.to.re ".")) (str.to.re "_")))) (re.++ ((_ re.capture 8) ((_ re.loop 0 4) (re.range "0" "9"))) re.all))))))))))) (re.++ re.all(re.+ (re.range "a" "z")) re.all) )))
;/[a-z]+/.test(match[1]) == false	
(check-sat)
(get-model)
(pop 1)
(push 1)
(assert (str.in.re var0 (re.* (re.range "\x01" "\xff"))))
(assert (str.in.re var0 (re.++ re.begin-anchor (re.++ (re.opt ((_ re.capture 1) (re.union (re.++ (str.to.re "+") (re.++ (str.to.re "2") (str.to.re "7"))) (re.++ (str.to.re "2") (str.to.re "7"))))) (re.++ (re.opt ((_ re.capture 2) (str.to.re "("))) (re.++ (re.opt (str.to.re "0")) (re.++ ((_ re.capture 3) (re.union (re.++ (str.to.re "7") (re.range "1" "9")) (re.++ (str.to.re "8") (re.range "2" "4")))) (re.++ (re.opt ((_ re.capture 4) (str.to.re ")"))) (re.++ (re.opt ((_ re.capture 5) (re.union (re.union (re.union (str.to.re " ") (str.to.re "-")) (str.to.re ".")) (str.to.re "_")))) (re.++ ((_ re.capture 6) ((_ re.loop 0 3) (re.range "0" "9"))) (re.++ (re.opt ((_ re.capture 7) (re.union (re.union (re.union (str.to.re " ") (str.to.re "-")) (str.to.re ".")) (str.to.re "_")))) (re.++ ((_ re.capture 8) ((_ re.loop 0 4) (re.range "0" "9"))) re.all))))))))))))	; match!==null
(assert (str.in.re ((_ str.extract 1) var0 (re.++ re.begin-anchor (re.++ (re.opt ((_ re.capture 1) (re.union (re.++ (str.to.re "+") (re.++ (str.to.re "2") (str.to.re "7"))) (re.++ (str.to.re "2") (str.to.re "7"))))) (re.++ (re.opt ((_ re.capture 2) (str.to.re "("))) (re.++ (re.opt (str.to.re "0")) (re.++ ((_ re.capture 3) (re.union (re.++ (str.to.re "7") (re.range "1" "9")) (re.++ (str.to.re "8") (re.range "2" "4")))) (re.++ (re.opt ((_ re.capture 4) (str.to.re ")"))) (re.++ (re.opt ((_ re.capture 5) (re.union (re.union (re.union (str.to.re " ") (str.to.re "-")) (str.to.re ".")) (str.to.re "_")))) (re.++ ((_ re.capture 6) ((_ re.loop 0 3) (re.range "0" "9"))) (re.++ (re.opt ((_ re.capture 7) (re.union (re.union (re.union (str.to.re " ") (str.to.re "-")) (str.to.re ".")) (str.to.re "_")))) (re.++ ((_ re.capture 8) ((_ re.loop 0 4) (re.range "0" "9"))) re.all))))))))))) (str.to.re "\x00")))
;match[1]==null
(check-sat)
(get-model)
(pop 1)
(push 1)
(assert (str.in.re var0 (re.* (re.range "\x01" "\xff"))))
(assert (not (str.in.re var0 (re.++ re.begin-anchor (re.++ (re.opt ((_ re.capture 1) (re.union (re.++ (str.to.re "+") (re.++ (str.to.re "2") (str.to.re "7"))) (re.++ (str.to.re "2") (str.to.re "7"))))) (re.++ (re.opt ((_ re.capture 2) (str.to.re "("))) (re.++ (re.opt (str.to.re "0")) (re.++ ((_ re.capture 3) (re.union (re.++ (str.to.re "7") (re.range "1" "9")) (re.++ (str.to.re "8") (re.range "2" "4")))) (re.++ (re.opt ((_ re.capture 4) (str.to.re ")"))) (re.++ (re.opt ((_ re.capture 5) (re.union (re.union (re.union (str.to.re " ") (str.to.re "-")) (str.to.re ".")) (str.to.re "_")))) (re.++ ((_ re.capture 6) ((_ re.loop 0 3) (re.range "0" "9"))) (re.++ (re.opt ((_ re.capture 7) (re.union (re.union (re.union (str.to.re " ") (str.to.re "-")) (str.to.re ".")) (str.to.re "_")))) (re.++ ((_ re.capture 8) ((_ re.loop 0 4) (re.range "0" "9"))) re.all)))))))))))))	; match == null
(check-sat)
(get-model)
(pop 1)
(exit)
